n = 10;
colSum=[4,4,0,3,4,8,2,6,1,4];
rowSum=[6,6,3,3,7,1,2,1,5,2];
groups=[|1,1,1,1,1,1,2,2,2,2|1,3,3,3,4,4,3,3,3,5|1,6,6,3,3,3,3,3,5,5|1,6,6,6,6,6,6,5,5,5|6,6,7,7,6,6,6,5,8,8|6,7,7,7,8,8,8,8,8,7|6,7,9,7,8,7,7,7,7,7|6,7,9,7,7,7,7,7,7,7|9,7,9,7,9,9,9,10,7,7|9,9,9,9,9,10,10,10,7,7|];
rowN = 10;
colN = 10;
pair=[|0,1,1,1,0,1,0,0,0,0|0,0,1,0,1,0,0,0,0,0|0,0,0,1,1,1,0,0,0,0|0,0,1,0,0,0,0,0,0,0|0,0,0,0,0,0,0,1,0,0|0,0,1,0,1,0,1,1,1,0|0,0,0,0,0,1,0,1,1,1|0,0,0,0,0,0,1,0,0,0|0,0,0,0,0,0,1,0,0,1|0,0,0,0,0,0,1,0,0,0|];
